(set-logic QF_S)
(declare-fun var_0xINPUT_242630 () String)
(assert (and (= (len var_0xINPUT_242630) 0) (= (len var_0xINPUT_242630) 0) (not (= var_0xINPUT_242630 "Example:")) (not (= var_0xINPUT_242630 "YY8CBEMy6Q"))))
(check-sat var_0xINPUT_242630)